language ESSENCE' 1.0

letting jobs = 102
letting horizon = 822
letting resourcesRenew = 2
letting resourcesNonrenew = 2
letting resourceLimits = [12, 11, 318, 267]
letting successors = [[2, 3, 4, 6, 7, 9, 10, 11, 12, 14], [31, 20, 19, 18, 17, 8], [21, 20, 15, 5], [18, 16, 8], [36, 31, 30, 25, 23, 22, 19, 18], [36, 24, 23, 22, 21, 20, 15], [31, 29, 24, 17, 13], [36, 22, 15, 13], [24, 22, 19, 13], [24, 19, 13], [48, 36, 31, 29, 23, 21, 18], [42, 30, 28, 23, 21, 19], [48, 42, 32, 30, 28, 27, 23, 21], [28, 24, 22, 19], [48, 37, 32, 30, 29, 28, 27, 26, 25], [37, 36, 35, 34, 32, 30, 28, 26, 24], [48, 42, 41, 37, 35, 34, 33, 32, 28, 26], [41, 35, 34, 32, 28, 27, 26, 24], [48, 41, 37, 34, 33, 32, 29, 26], [37, 32, 30, 29, 27, 26], [35, 26, 25], [44, 42, 39, 37, 34, 33], [52, 49, 44, 43, 41, 40, 39, 37], [54, 52, 49, 44, 39, 33], [39, 34, 33], [52, 49, 44, 39, 38], [54, 52, 44, 33], [54, 50, 49, 47, 46, 45, 44, 43, 40], [59, 54, 49, 45, 44, 43, 39], [49, 47, 46, 41, 40], [47, 46, 44, 38], [68, 54, 53, 52, 50, 47, 45, 43], [53, 47, 46, 38], [57, 52, 50, 49, 46, 40], [54, 49, 46, 45, 40], [61, 56, 52, 50, 47, 44], [68, 61, 59, 58, 57, 56, 54, 53, 51, 50], [68, 59, 50, 45, 43], [50, 47, 46], [68, 65, 63, 61, 59, 58, 56, 53, 51], [68, 60, 58, 50, 45], [68, 65, 60, 59, 56, 55, 53], [61, 58, 57, 56, 55, 51], [72, 68, 62, 60, 58, 57, 53], [72, 66, 65, 64, 62, 57, 55], [71, 68, 64, 63, 61, 58, 56], [71, 57, 51], [72, 63, 62, 61, 60, 59], [72, 66, 63, 58, 53], [66, 65, 62, 55], [72, 70, 64, 62, 60], [70, 64, 62, 60, 59], [77, 76, 71, 70, 69, 67, 64], [76, 72, 69, 64, 62], [77, 76, 71, 69, 63], [82, 81, 72, 70, 62], [69, 67, 63], [76, 73, 70, 69, 67], [82, 81, 78, 77, 76, 74, 67], [74, 69, 66], [87, 84, 83, 75, 74, 73, 69], [78, 77, 74, 73, 67], [88, 84, 78, 74, 73, 70], [88, 87, 84, 83, 82, 80, 75, 74, 73], [100, 88, 84, 83, 82, 81, 80, 79, 73], [100, 87, 83, 80, 76, 75, 73], [101, 98, 90, 88, 87, 84, 83, 80, 75], [99, 90, 87, 83, 81, 80, 75, 73], [101, 100, 99, 98, 96, 91, 88, 85, 82, 81, 80, 78], [100, 98, 90, 87, 83, 80, 75], [101, 100, 90, 87, 83, 80, 75], [100, 98, 91, 90, 89, 86, 84, 80, 79], [101, 98, 97, 96, 91, 89, 86, 85], [100, 98, 96, 91, 89, 79], [96, 91, 89, 86, 79], [99, 98, 97, 96, 95, 93, 90, 85], [99, 97, 96, 90, 85, 80], [94, 89, 86], [97, 93, 85], [95, 94, 93, 92], [97, 95, 94, 92], [94, 93, 90], [94, 93, 92], [99, 96, 93], [94, 92], [93, 92], [96, 92], [93, 92], [95], [92], [93], [102], [102], [102], [102], [102], [102], [102], [102], [102], [102], []]
letting durations = [[0], [5, 10, 10], [2, 6, 7], [3, 7, 9], [3, 5, 9], [1, 9, 10], [6, 8, 10], [2, 4, 6], [5, 6, 7], [8, 9, 10], [4, 5, 7], [6, 8, 10], [6, 6, 10], [1, 5, 9], [1, 3, 6], [3, 5, 6], [4, 7, 8], [7, 8, 10], [3, 6, 7], [5, 7, 8], [2, 3, 6], [1, 3, 9], [4, 8, 9], [2, 6, 7], [6, 7, 10], [4, 4, 10], [2, 7, 10], [2, 5, 9], [3, 4, 5], [1, 4, 8], [5, 8, 9], [5, 9, 10], [2, 3, 10], [6, 7, 9], [1, 8, 9], [6, 8, 10], [4, 7, 9], [1, 1, 3], [1, 9, 9], [5, 10, 10], [2, 4, 6], [1, 10, 10], [1, 3, 10], [1, 3, 9], [2, 6, 9], [5, 8, 10], [2, 3, 10], [9, 9, 10], [2, 2, 6], [3, 7, 10], [1, 3, 7], [3, 3, 9], [4, 5, 7], [1, 2, 7], [4, 4, 10], [1, 2, 6], [3, 8, 10], [1, 5, 5], [4, 8, 10], [4, 6, 9], [4, 5, 5], [1, 4, 10], [3, 6, 10], [2, 2, 8], [1, 3, 5], [1, 6, 7], [6, 7, 10], [1, 2, 8], [4, 6, 8], [7, 9, 10], [8, 9, 9], [4, 6, 7], [2, 8, 10], [1, 4, 5], [3, 3, 7], [1, 1, 8], [1, 4, 10], [1, 5, 6], [2, 3, 9], [3, 5, 5], [2, 4, 10], [1, 4, 6], [1, 3, 7], [3, 7, 7], [1, 3, 10], [5, 7, 8], [1, 8, 9], [1, 7, 10], [3, 8, 9], [2, 3, 3], [2, 3, 7], [3, 4, 9], [4, 6, 9], [1, 6, 10], [3, 6, 8], [2, 6, 7], [1, 1, 5], [2, 2, 3], [6, 7, 9], [1, 6, 9], [4, 7, 10], [0]]
letting resourceUsage = [[[0, 0, 0, 0]], [[4, 0, 0, 7], [3, 0, 9, 0], [0, 1, 0, 6]], [[5, 0, 0, 8], [0, 4, 0, 4], [2, 0, 2, 0]], [[3, 0, 0, 8], [3, 0, 0, 5], [3, 0, 2, 0]], [[0, 4, 3, 0], [0, 3, 0, 2], [3, 0, 0, 1]], [[0, 5, 0, 7], [2, 0, 0, 4], [1, 0, 6, 0]], [[0, 5, 0, 9], [0, 3, 3, 0], [4, 0, 0, 8]], [[4, 0, 0, 8], [3, 0, 2, 0], [2, 0, 0, 3]], [[0, 4, 0, 8], [2, 0, 0, 8], [0, 2, 0, 7]], [[0, 4, 0, 1], [4, 0, 5, 0], [4, 0, 4, 0]], [[5, 0, 0, 4], [5, 0, 0, 3], [0, 2, 0, 2]], [[0, 4, 2, 0], [0, 4, 1, 0], [2, 0, 2, 0]], [[4, 0, 8, 0], [0, 2, 0, 7], [0, 2, 0, 6]], [[4, 0, 6, 0], [4, 0, 4, 0], [4, 0, 3, 0]], [[0, 1, 0, 10], [0, 1, 6, 0], [0, 1, 5, 0]], [[4, 0, 0, 9], [0, 4, 6, 0], [0, 4, 0, 8]], [[2, 0, 0, 7], [0, 2, 4, 0], [1, 0, 4, 0]], [[2, 0, 0, 8], [2, 0, 0, 7], [0, 2, 0, 7]], [[1, 0, 5, 0], [0, 2, 2, 0], [0, 1, 2, 0]], [[5, 0, 5, 0], [4, 0, 0, 2], [0, 3, 4, 0]], [[4, 0, 0, 6], [4, 0, 6, 0], [0, 2, 4, 0]], [[0, 2, 8, 0], [3, 0, 0, 1], [0, 1, 0, 1]], [[0, 5, 3, 0], [2, 0, 2, 0], [0, 5, 0, 2]], [[4, 0, 10, 0], [0, 1, 0, 4], [0, 1, 6, 0]], [[0, 2, 9, 0], [3, 0, 0, 1], [3, 0, 6, 0]], [[0, 5, 7, 0], [3, 0, 0, 5], [0, 3, 0, 1]], [[0, 3, 0, 2], [1, 0, 0, 1], [0, 3, 4, 0]], [[0, 5, 7, 0], [1, 0, 6, 0], [1, 0, 4, 0]], [[0, 4, 7, 0], [4, 0, 7, 0], [0, 4, 6, 0]], [[0, 3, 4, 0], [2, 0, 4, 0], [2, 0, 3, 0]], [[4, 0, 5, 0], [0, 1, 0, 6], [3, 0, 3, 0]], [[0, 4, 0, 2], [0, 4, 7, 0], [0, 2, 6, 0]], [[5, 0, 0, 9], [0, 2, 0, 5], [0, 2, 1, 0]], [[0, 4, 0, 5], [3, 0, 7, 0], [3, 0, 6, 0]], [[0, 4, 0, 7], [0, 3, 7, 0], [2, 0, 0, 7]], [[4, 0, 7, 0], [0, 3, 6, 0], [0, 3, 0, 3]], [[1, 0, 0, 10], [1, 0, 4, 0], [1, 0, 0, 6]], [[0, 1, 7, 0], [0, 1, 0, 4], [4, 0, 3, 0]], [[0, 3, 0, 10], [3, 0, 0, 10], [0, 3, 0, 9]], [[0, 3, 9, 0], [3, 0, 9, 0], [0, 3, 8, 0]], [[0, 5, 2, 0], [1, 0, 0, 3], [1, 0, 0, 1]], [[0, 5, 5, 0], [0, 5, 0, 9], [0, 5, 3, 0]], [[3, 0, 3, 0], [3, 0, 2, 0], [3, 0, 1, 0]], [[4, 0, 7, 0], [2, 0, 7, 0], [2, 0, 6, 0]], [[3, 0, 0, 7], [0, 1, 0, 6], [0, 1, 0, 5]], [[4, 0, 5, 0], [0, 3, 0, 5], [0, 2, 0, 4]], [[0, 3, 0, 7], [1, 0, 0, 7], [0, 1, 0, 7]], [[0, 2, 10, 0], [1, 0, 10, 0], [0, 2, 0, 10]], [[3, 0, 0, 8], [0, 2, 7, 0], [1, 0, 0, 6]], [[4, 0, 8, 0], [0, 3, 0, 7], [4, 0, 0, 7]], [[0, 5, 4, 0], [3, 0, 0, 2], [2, 0, 4, 0]], [[2, 0, 0, 7], [1, 0, 3, 0], [1, 0, 2, 0]], [[0, 3, 9, 0], [3, 0, 0, 9], [0, 3, 0, 9]], [[0, 3, 6, 0], [0, 3, 0, 2], [2, 0, 6, 0]], [[2, 0, 0, 7], [1, 0, 4, 0], [0, 4, 0, 7]], [[0, 3, 0, 10], [0, 3, 0, 8], [0, 2, 0, 5]], [[3, 0, 9, 0], [0, 2, 8, 0], [0, 2, 0, 2]], [[0, 4, 0, 1], [3, 0, 0, 1], [2, 0, 3, 0]], [[0, 1, 9, 0], [0, 1, 0, 5], [0, 1, 0, 3]], [[0, 4, 10, 0], [1, 0, 10, 0], [0, 3, 10, 0]], [[0, 3, 9, 0], [0, 2, 0, 3], [0, 2, 7, 0]], [[0, 5, 9, 0], [0, 4, 5, 0], [0, 4, 3, 0]], [[0, 4, 0, 8], [0, 4, 1, 0], [3, 0, 0, 6]], [[3, 0, 8, 0], [0, 3, 0, 8], [0, 2, 0, 8]], [[0, 2, 0, 6], [0, 2, 0, 5], [3, 0, 0, 5]], [[3, 0, 9, 0], [0, 3, 7, 0], [2, 0, 0, 2]], [[5, 0, 5, 0], [3, 0, 3, 0], [0, 3, 0, 6]], [[0, 2, 0, 8], [0, 1, 2, 0], [2, 0, 2, 0]], [[0, 5, 10, 0], [1, 0, 8, 0], [0, 2, 4, 0]], [[2, 0, 0, 8], [2, 0, 6, 0], [2, 0, 5, 0]], [[0, 4, 10, 0], [2, 0, 9, 0], [0, 2, 8, 0]], [[0, 4, 0, 1], [1, 0, 7, 0], [0, 3, 0, 1]], [[4, 0, 0, 6], [0, 3, 8, 0], [0, 3, 0, 6]], [[0, 3, 8, 0], [3, 0, 6, 0], [3, 0, 0, 7]], [[5, 0, 0, 9], [0, 3, 7, 0], [2, 0, 7, 0]], [[0, 5, 0, 4], [0, 4, 8, 0], [1, 0, 0, 4]], [[1, 0, 9, 0], [0, 3, 9, 0], [0, 3, 0, 10]], [[0, 5, 3, 0], [0, 3, 2, 0], [0, 3, 1, 0]], [[4, 0, 6, 0], [4, 0, 0, 8], [3, 0, 2, 0]], [[0, 2, 10, 0], [4, 0, 0, 4], [4, 0, 6, 0]], [[0, 3, 0, 4], [2, 0, 4, 0], [2, 0, 0, 2]], [[4, 0, 0, 10], [3, 0, 5, 0], [3, 0, 0, 8]], [[0, 3, 1, 0], [1, 0, 0, 8], [1, 0, 0, 6]], [[0, 2, 9, 0], [0, 1, 0, 8], [0, 1, 5, 0]], [[2, 0, 9, 0], [2, 0, 6, 0], [0, 1, 0, 2]], [[4, 0, 10, 0], [3, 0, 8, 0], [3, 0, 7, 0]], [[0, 5, 5, 0], [0, 4, 5, 0], [0, 4, 4, 0]], [[4, 0, 6, 0], [3, 0, 0, 6], [0, 1, 6, 0]], [[0, 3, 0, 9], [1, 0, 0, 8], [1, 0, 0, 6]], [[5, 0, 0, 7], [4, 0, 0, 6], [2, 0, 7, 0]], [[0, 5, 4, 0], [3, 0, 0, 3], [0, 3, 0, 1]], [[4, 0, 8, 0], [3, 0, 0, 7], [2, 0, 0, 7]], [[4, 0, 2, 0], [0, 3, 2, 0], [0, 3, 1, 0]], [[0, 4, 0, 7], [2, 0, 0, 7], [2, 0, 7, 0]], [[2, 0, 8, 0], [0, 1, 0, 7], [1, 0, 3, 0]], [[0, 4, 0, 8], [4, 0, 4, 0], [0, 3, 3, 0]], [[0, 3, 4, 0], [0, 1, 0, 1], [0, 1, 3, 0]], [[0, 5, 6, 0], [3, 0, 6, 0], [3, 0, 5, 0]], [[2, 0, 8, 0], [2, 0, 6, 0], [0, 4, 0, 4]], [[3, 0, 0, 6], [3, 0, 0, 3], [0, 3, 0, 3]], [[3, 0, 7, 0], [0, 3, 5, 0], [0, 3, 3, 0]], [[0, 0, 0, 0]]]
